<number of tasks>
20


<number of equipment>
5


<cycle time>
1000


<investment costs>
1,15205
2,29827
3,9461
4,16860
5,17872


<task times>
1,534,265,-1,504,-1
2,519,334,-1,497,-1
3,307,234,-1,308,-1
4,361,235,-1,-1,406
5,627,355,-1,-1,593
6,497,372,-1,478,-1
7,532,237,-1,-1,528
8,528,345,-1,-1,481
9,538,492,-1,-1,525
10,478,286,-1,-1,469
11,481,290,-1,-1,469
12,520,259,-1,449,-1
13,446,364,-1,463,-1
14,525,400,-1,498,-1
15,-1,-1,560,-1,477
16,516,241,-1,-1,393
17,-1,-1,609,-1,487
18,526,238,-1,-1,491
19,-1,-1,522,-1,463
20,408,237,-1,-1,325


<precedence relations>
1,10
2,10
3,10
4,6
4,8
4,12
5,7
5,9
5,10
5,11
6,10
7,18
8,11
9,12
9,17
9,18
10,13
10,14
10,15
10,16
11,17
11,18
13,20
14,17
15,17
16,18
17,19
17,20
18,19


<task types>
1,2
2,2
3,2
4,3
5,3
6,2
7,3
8,3
9,3
10,3
11,3
12,2
13,2
14,2
15,1
16,3
17,1
18,3
19,1
20,3


<line depot>
1,11
2,0
3,1
4,0
5,2


<processing costs>
1,14400
2,14400
3,7200
4,7200
5,14400


<saving costs>
1,1520
2,2982
3,946
4,1686
5,1787


<end>
